c t mc
c file mc2022_track1_151.cnf
p cnf 120 1120
-1 41 -81 0
1 -41 -81 0
-1 -41 -81 0
-2 42 -82 0
2 -42 -82 0
-2 -42 -82 0
-3 43 -83 0
3 -43 -83 0
-3 -43 -83 0
-4 44 -84 0
4 -44 -84 0
-4 -44 -84 0
-5 45 -85 0
5 -45 -85 0
-5 -45 -85 0
-6 46 -86 0
6 -46 -86 0
-6 -46 -86 0
-7 47 -87 0
7 -47 -87 0
-7 -47 -87 0
-8 48 -88 0
8 -48 -88 0
-8 -48 -88 0
-9 49 -89 0
9 -49 -89 0
-9 -49 -89 0
-10 50 -90 0
10 -50 -90 0
-10 -50 -90 0
-11 51 -91 0
11 -51 -91 0
-11 -51 -91 0
-12 52 -92 0
12 -52 -92 0
-12 -52 -92 0
-13 53 -93 0
13 -53 -93 0
-13 -53 -93 0
-14 54 -94 0
14 -54 -94 0
-14 -54 -94 0
-15 55 -95 0
15 -55 -95 0
-15 -55 -95 0
-16 56 -96 0
16 -56 -96 0
-16 -56 -96 0
-17 57 -97 0
17 -57 -97 0
-17 -57 -97 0
-18 58 -98 0
18 -58 -98 0
-18 -58 -98 0
-19 59 -99 0
19 -59 -99 0
-19 -59 -99 0
-20 60 -100 0
20 -60 -100 0
-20 -60 -100 0
-21 61 -101 0
21 -61 -101 0
-21 -61 -101 0
-22 62 -102 0
22 -62 -102 0
-22 -62 -102 0
-23 63 -103 0
23 -63 -103 0
-23 -63 -103 0
-24 64 -104 0
24 -64 -104 0
-24 -64 -104 0
-25 65 -105 0
25 -65 -105 0
-25 -65 -105 0
-26 66 -106 0
26 -66 -106 0
-26 -66 -106 0
-27 67 -107 0
27 -67 -107 0
-27 -67 -107 0
-28 68 -108 0
28 -68 -108 0
-28 -68 -108 0
-29 69 -109 0
29 -69 -109 0
-29 -69 -109 0
-30 70 -110 0
30 -70 -110 0
-30 -70 -110 0
-31 71 -111 0
31 -71 -111 0
-31 -71 -111 0
-32 72 -112 0
32 -72 -112 0
-32 -72 -112 0
-33 73 -113 0
33 -73 -113 0
-33 -73 -113 0
-34 74 -114 0
34 -74 -114 0
-34 -74 -114 0
-35 75 -115 0
35 -75 -115 0
-35 -75 -115 0
-36 76 -116 0
36 -76 -116 0
-36 -76 -116 0
-37 77 -117 0
37 -77 -117 0
-37 -77 -117 0
-38 78 -118 0
38 -78 -118 0
-38 -78 -118 0
-39 79 -119 0
39 -79 -119 0
-39 -79 -119 0
-40 80 -120 0
40 -80 -120 0
-40 -80 -120 0
1 41 81 29 69 109 0
-1 41 81 -29 69 109 0
1 -41 81 29 -69 109 0
-1 -41 81 -29 -69 109 0
1 41 -81 29 69 -109 0
1 41 81 34 74 114 0
-1 41 81 -34 74 114 0
1 -41 81 34 -74 114 0
-1 -41 81 -34 -74 114 0
1 41 -81 34 74 -114 0
1 41 81 21 61 101 0
-1 41 81 -21 61 101 0
1 -41 81 21 -61 101 0
-1 -41 81 -21 -61 101 0
1 41 -81 21 61 -101 0
1 41 81 33 73 113 0
-1 41 81 -33 73 113 0
1 -41 81 33 -73 113 0
-1 -41 81 -33 -73 113 0
1 41 -81 33 73 -113 0
1 41 81 29 69 109 0
-1 41 81 -29 69 109 0
1 -41 81 29 -69 109 0
-1 -41 81 -29 -69 109 0
1 41 -81 29 69 -109 0
1 41 81 34 74 114 0
-1 41 81 -34 74 114 0
1 -41 81 34 -74 114 0
-1 -41 81 -34 -74 114 0
1 41 -81 34 74 -114 0
1 41 81 2 42 82 0
-1 41 81 -2 42 82 0
1 -41 81 2 -42 82 0
-1 -41 81 -2 -42 82 0
1 41 -81 2 42 -82 0
1 41 81 9 49 89 0
-1 41 81 -9 49 89 0
1 -41 81 9 -49 89 0
-1 -41 81 -9 -49 89 0
1 41 -81 9 49 -89 0
1 41 81 8 48 88 0
-1 41 81 -8 48 88 0
1 -41 81 8 -48 88 0
-1 -41 81 -8 -48 88 0
1 41 -81 8 48 -88 0
1 41 81 21 61 101 0
-1 41 81 -21 61 101 0
1 -41 81 21 -61 101 0
-1 -41 81 -21 -61 101 0
1 41 -81 21 61 -101 0
2 42 82 32 72 112 0
-2 42 82 -32 72 112 0
2 -42 82 32 -72 112 0
-2 -42 82 -32 -72 112 0
2 42 -82 32 72 -112 0
2 42 82 29 69 109 0
-2 42 82 -29 69 109 0
2 -42 82 29 -69 109 0
-2 -42 82 -29 -69 109 0
2 42 -82 29 69 -109 0
2 42 82 23 63 103 0
-2 42 82 -23 63 103 0
2 -42 82 23 -63 103 0
-2 -42 82 -23 -63 103 0
2 42 -82 23 63 -103 0
2 42 82 34 74 114 0
-2 42 82 -34 74 114 0
2 -42 82 34 -74 114 0
-2 -42 82 -34 -74 114 0
2 42 -82 34 74 -114 0
2 42 82 27 67 107 0
-2 42 82 -27 67 107 0
2 -42 82 27 -67 107 0
-2 -42 82 -27 -67 107 0
2 42 -82 27 67 -107 0
2 42 82 10 50 90 0
-2 42 82 -10 50 90 0
2 -42 82 10 -50 90 0
-2 -42 82 -10 -50 90 0
2 42 -82 10 50 -90 0
2 42 82 4 44 84 0
-2 42 82 -4 44 84 0
2 -42 82 4 -44 84 0
-2 -42 82 -4 -44 84 0
2 42 -82 4 44 -84 0
2 42 82 29 69 109 0
-2 42 82 -29 69 109 0
2 -42 82 29 -69 109 0
-2 -42 82 -29 -69 109 0
2 42 -82 29 69 -109 0
2 42 82 27 67 107 0
-2 42 82 -27 67 107 0
2 -42 82 27 -67 107 0
-2 -42 82 -27 -67 107 0
2 42 -82 27 67 -107 0
3 43 83 20 60 100 0
-3 43 83 -20 60 100 0
3 -43 83 20 -60 100 0
-3 -43 83 -20 -60 100 0
3 43 -83 20 60 -100 0
3 43 83 5 45 85 0
-3 43 83 -5 45 85 0
3 -43 83 5 -45 85 0
-3 -43 83 -5 -45 85 0
3 43 -83 5 45 -85 0
3 43 83 14 54 94 0
-3 43 83 -14 54 94 0
3 -43 83 14 -54 94 0
-3 -43 83 -14 -54 94 0
3 43 -83 14 54 -94 0
3 43 83 19 59 99 0
-3 43 83 -19 59 99 0
3 -43 83 19 -59 99 0
-3 -43 83 -19 -59 99 0
3 43 -83 19 59 -99 0
3 43 83 33 73 113 0
-3 43 83 -33 73 113 0
3 -43 83 33 -73 113 0
-3 -43 83 -33 -73 113 0
3 43 -83 33 73 -113 0
3 43 83 6 46 86 0
-3 43 83 -6 46 86 0
3 -43 83 6 -46 86 0
-3 -43 83 -6 -46 86 0
3 43 -83 6 46 -86 0
3 43 83 19 59 99 0
-3 43 83 -19 59 99 0
3 -43 83 19 -59 99 0
-3 -43 83 -19 -59 99 0
3 43 -83 19 59 -99 0
3 43 83 28 68 108 0
-3 43 83 -28 68 108 0
3 -43 83 28 -68 108 0
-3 -43 83 -28 -68 108 0
3 43 -83 28 68 -108 0
3 43 83 35 75 115 0
-3 43 83 -35 75 115 0
3 -43 83 35 -75 115 0
-3 -43 83 -35 -75 115 0
3 43 -83 35 75 -115 0
3 43 83 24 64 104 0
-3 43 83 -24 64 104 0
3 -43 83 24 -64 104 0
-3 -43 83 -24 -64 104 0
3 43 -83 24 64 -104 0
4 44 84 15 55 95 0
-4 44 84 -15 55 95 0
4 -44 84 15 -55 95 0
-4 -44 84 -15 -55 95 0
4 44 -84 15 55 -95 0
4 44 84 29 69 109 0
-4 44 84 -29 69 109 0
4 -44 84 29 -69 109 0
-4 -44 84 -29 -69 109 0
4 44 -84 29 69 -109 0
4 44 84 25 65 105 0
-4 44 84 -25 65 105 0
4 -44 84 25 -65 105 0
-4 -44 84 -25 -65 105 0
4 44 -84 25 65 -105 0
4 44 84 16 56 96 0
-4 44 84 -16 56 96 0
4 -44 84 16 -56 96 0
-4 -44 84 -16 -56 96 0
4 44 -84 16 56 -96 0
4 44 84 25 65 105 0
-4 44 84 -25 65 105 0
4 -44 84 25 -65 105 0
-4 -44 84 -25 -65 105 0
4 44 -84 25 65 -105 0
4 44 84 20 60 100 0
-4 44 84 -20 60 100 0
4 -44 84 20 -60 100 0
-4 -44 84 -20 -60 100 0
4 44 -84 20 60 -100 0
4 44 84 7 47 87 0
-4 44 84 -7 47 87 0
4 -44 84 7 -47 87 0
-4 -44 84 -7 -47 87 0
4 44 -84 7 47 -87 0
4 44 84 31 71 111 0
-4 44 84 -31 71 111 0
4 -44 84 31 -71 111 0
-4 -44 84 -31 -71 111 0
4 44 -84 31 71 -111 0
4 44 84 35 75 115 0
-4 44 84 -35 75 115 0
4 -44 84 35 -75 115 0
-4 -44 84 -35 -75 115 0
4 44 -84 35 75 -115 0
5 45 85 6 46 86 0
-5 45 85 -6 46 86 0
5 -45 85 6 -46 86 0
-5 -45 85 -6 -46 86 0
5 45 -85 6 46 -86 0
5 45 85 18 58 98 0
-5 45 85 -18 58 98 0
5 -45 85 18 -58 98 0
-5 -45 85 -18 -58 98 0
5 45 -85 18 58 -98 0
5 45 85 37 77 117 0
-5 45 85 -37 77 117 0
5 -45 85 37 -77 117 0
-5 -45 85 -37 -77 117 0
5 45 -85 37 77 -117 0
5 45 85 15 55 95 0
-5 45 85 -15 55 95 0
5 -45 85 15 -55 95 0
-5 -45 85 -15 -55 95 0
5 45 -85 15 55 -95 0
5 45 85 21 61 101 0
-5 45 85 -21 61 101 0
5 -45 85 21 -61 101 0
-5 -45 85 -21 -61 101 0
5 45 -85 21 61 -101 0
5 45 85 30 70 110 0
-5 45 85 -30 70 110 0
5 -45 85 30 -70 110 0
-5 -45 85 -30 -70 110 0
5 45 -85 30 70 -110 0
5 45 85 20 60 100 0
-5 45 85 -20 60 100 0
5 -45 85 20 -60 100 0
-5 -45 85 -20 -60 100 0
5 45 -85 20 60 -100 0
5 45 85 40 80 120 0
-5 45 85 -40 80 120 0
5 -45 85 40 -80 120 0
-5 -45 85 -40 -80 120 0
5 45 -85 40 80 -120 0
5 45 85 22 62 102 0
-5 45 85 -22 62 102 0
5 -45 85 22 -62 102 0
-5 -45 85 -22 -62 102 0
5 45 -85 22 62 -102 0
6 46 86 36 76 116 0
-6 46 86 -36 76 116 0
6 -46 86 36 -76 116 0
-6 -46 86 -36 -76 116 0
6 46 -86 36 76 -116 0
6 46 86 8 48 88 0
-6 46 86 -8 48 88 0
6 -46 86 8 -48 88 0
-6 -46 86 -8 -48 88 0
6 46 -86 8 48 -88 0
6 46 86 29 69 109 0
-6 46 86 -29 69 109 0
6 -46 86 29 -69 109 0
-6 -46 86 -29 -69 109 0
6 46 -86 29 69 -109 0
6 46 86 40 80 120 0
-6 46 86 -40 80 120 0
6 -46 86 40 -80 120 0
-6 -46 86 -40 -80 120 0
6 46 -86 40 80 -120 0
6 46 86 28 68 108 0
-6 46 86 -28 68 108 0
6 -46 86 28 -68 108 0
-6 -46 86 -28 -68 108 0
6 46 -86 28 68 -108 0
6 46 86 37 77 117 0
-6 46 86 -37 77 117 0
6 -46 86 37 -77 117 0
-6 -46 86 -37 -77 117 0
6 46 -86 37 77 -117 0
6 46 86 35 75 115 0
-6 46 86 -35 75 115 0
6 -46 86 35 -75 115 0
-6 -46 86 -35 -75 115 0
6 46 -86 35 75 -115 0
6 46 86 7 47 87 0
-6 46 86 -7 47 87 0
6 -46 86 7 -47 87 0
-6 -46 86 -7 -47 87 0
6 46 -86 7 47 -87 0
7 47 87 40 80 120 0
-7 47 87 -40 80 120 0
7 -47 87 40 -80 120 0
-7 -47 87 -40 -80 120 0
7 47 -87 40 80 -120 0
7 47 87 18 58 98 0
-7 47 87 -18 58 98 0
7 -47 87 18 -58 98 0
-7 -47 87 -18 -58 98 0
7 47 -87 18 58 -98 0
7 47 87 23 63 103 0
-7 47 87 -23 63 103 0
7 -47 87 23 -63 103 0
-7 -47 87 -23 -63 103 0
7 47 -87 23 63 -103 0
7 47 87 20 60 100 0
-7 47 87 -20 60 100 0
7 -47 87 20 -60 100 0
-7 -47 87 -20 -60 100 0
7 47 -87 20 60 -100 0
7 47 87 24 64 104 0
-7 47 87 -24 64 104 0
7 -47 87 24 -64 104 0
-7 -47 87 -24 -64 104 0
7 47 -87 24 64 -104 0
7 47 87 36 76 116 0
-7 47 87 -36 76 116 0
7 -47 87 36 -76 116 0
-7 -47 87 -36 -76 116 0
7 47 -87 36 76 -116 0
7 47 87 36 76 116 0
-7 47 87 -36 76 116 0
7 -47 87 36 -76 116 0
-7 -47 87 -36 -76 116 0
7 47 -87 36 76 -116 0
7 47 87 13 53 93 0
-7 47 87 -13 53 93 0
7 -47 87 13 -53 93 0
-7 -47 87 -13 -53 93 0
7 47 -87 13 53 -93 0
8 48 88 21 61 101 0
-8 48 88 -21 61 101 0
8 -48 88 21 -61 101 0
-8 -48 88 -21 -61 101 0
8 48 -88 21 61 -101 0
8 48 88 30 70 110 0
-8 48 88 -30 70 110 0
8 -48 88 30 -70 110 0
-8 -48 88 -30 -70 110 0
8 48 -88 30 70 -110 0
8 48 88 16 56 96 0
-8 48 88 -16 56 96 0
8 -48 88 16 -56 96 0
-8 -48 88 -16 -56 96 0
8 48 -88 16 56 -96 0
8 48 88 13 53 93 0
-8 48 88 -13 53 93 0
8 -48 88 13 -53 93 0
-8 -48 88 -13 -53 93 0
8 48 -88 13 53 -93 0
8 48 88 30 70 110 0
-8 48 88 -30 70 110 0
8 -48 88 30 -70 110 0
-8 -48 88 -30 -70 110 0
8 48 -88 30 70 -110 0
8 48 88 16 56 96 0
-8 48 88 -16 56 96 0
8 -48 88 16 -56 96 0
-8 -48 88 -16 -56 96 0
8 48 -88 16 56 -96 0
8 48 88 38 78 118 0
-8 48 88 -38 78 118 0
8 -48 88 38 -78 118 0
-8 -48 88 -38 -78 118 0
8 48 -88 38 78 -118 0
8 48 88 31 71 111 0
-8 48 88 -31 71 111 0
8 -48 88 31 -71 111 0
-8 -48 88 -31 -71 111 0
8 48 -88 31 71 -111 0
9 49 89 25 65 105 0
-9 49 89 -25 65 105 0
9 -49 89 25 -65 105 0
-9 -49 89 -25 -65 105 0
9 49 -89 25 65 -105 0
9 49 89 20 60 100 0
-9 49 89 -20 60 100 0
9 -49 89 20 -60 100 0
-9 -49 89 -20 -60 100 0
9 49 -89 20 60 -100 0
9 49 89 24 64 104 0
-9 49 89 -24 64 104 0
9 -49 89 24 -64 104 0
-9 -49 89 -24 -64 104 0
9 49 -89 24 64 -104 0
9 49 89 14 54 94 0
-9 49 89 -14 54 94 0
9 -49 89 14 -54 94 0
-9 -49 89 -14 -54 94 0
9 49 -89 14 54 -94 0
9 49 89 27 67 107 0
-9 49 89 -27 67 107 0
9 -49 89 27 -67 107 0
-9 -49 89 -27 -67 107 0
9 49 -89 27 67 -107 0
9 49 89 17 57 97 0
-9 49 89 -17 57 97 0
9 -49 89 17 -57 97 0
-9 -49 89 -17 -57 97 0
9 49 -89 17 57 -97 0
9 49 89 37 77 117 0
-9 49 89 -37 77 117 0
9 -49 89 37 -77 117 0
-9 -49 89 -37 -77 117 0
9 49 -89 37 77 -117 0
9 49 89 30 70 110 0
-9 49 89 -30 70 110 0
9 -49 89 30 -70 110 0
-9 -49 89 -30 -70 110 0
9 49 -89 30 70 -110 0
9 49 89 35 75 115 0
-9 49 89 -35 75 115 0
9 -49 89 35 -75 115 0
-9 -49 89 -35 -75 115 0
9 49 -89 35 75 -115 0
10 50 90 14 54 94 0
-10 50 90 -14 54 94 0
10 -50 90 14 -54 94 0
-10 -50 90 -14 -54 94 0
10 50 -90 14 54 -94 0
10 50 90 26 66 106 0
-10 50 90 -26 66 106 0
10 -50 90 26 -66 106 0
-10 -50 90 -26 -66 106 0
10 50 -90 26 66 -106 0
10 50 90 18 58 98 0
-10 50 90 -18 58 98 0
10 -50 90 18 -58 98 0
-10 -50 90 -18 -58 98 0
10 50 -90 18 58 -98 0
10 50 90 13 53 93 0
-10 50 90 -13 53 93 0
10 -50 90 13 -53 93 0
-10 -50 90 -13 -53 93 0
10 50 -90 13 53 -93 0
10 50 90 35 75 115 0
-10 50 90 -35 75 115 0
10 -50 90 35 -75 115 0
-10 -50 90 -35 -75 115 0
10 50 -90 35 75 -115 0
10 50 90 40 80 120 0
-10 50 90 -40 80 120 0
10 -50 90 40 -80 120 0
-10 -50 90 -40 -80 120 0
10 50 -90 40 80 -120 0
10 50 90 23 63 103 0
-10 50 90 -23 63 103 0
10 -50 90 23 -63 103 0
-10 -50 90 -23 -63 103 0
10 50 -90 23 63 -103 0
10 50 90 11 51 91 0
-10 50 90 -11 51 91 0
10 -50 90 11 -51 91 0
-10 -50 90 -11 -51 91 0
10 50 -90 11 51 -91 0
10 50 90 38 78 118 0
-10 50 90 -38 78 118 0
10 -50 90 38 -78 118 0
-10 -50 90 -38 -78 118 0
10 50 -90 38 78 -118 0
11 51 91 36 76 116 0
-11 51 91 -36 76 116 0
11 -51 91 36 -76 116 0
-11 -51 91 -36 -76 116 0
11 51 -91 36 76 -116 0
11 51 91 39 79 119 0
-11 51 91 -39 79 119 0
11 -51 91 39 -79 119 0
-11 -51 91 -39 -79 119 0
11 51 -91 39 79 -119 0
11 51 91 38 78 118 0
-11 51 91 -38 78 118 0
11 -51 91 38 -78 118 0
-11 -51 91 -38 -78 118 0
11 51 -91 38 78 -118 0
11 51 91 17 57 97 0
-11 51 91 -17 57 97 0
11 -51 91 17 -57 97 0
-11 -51 91 -17 -57 97 0
11 51 -91 17 57 -97 0
11 51 91 28 68 108 0
-11 51 91 -28 68 108 0
11 -51 91 28 -68 108 0
-11 -51 91 -28 -68 108 0
11 51 -91 28 68 -108 0
11 51 91 39 79 119 0
-11 51 91 -39 79 119 0
11 -51 91 39 -79 119 0
-11 -51 91 -39 -79 119 0
11 51 -91 39 79 -119 0
11 51 91 32 72 112 0
-11 51 91 -32 72 112 0
11 -51 91 32 -72 112 0
-11 -51 91 -32 -72 112 0
11 51 -91 32 72 -112 0
11 51 91 24 64 104 0
-11 51 91 -24 64 104 0
11 -51 91 24 -64 104 0
-11 -51 91 -24 -64 104 0
11 51 -91 24 64 -104 0
11 51 91 21 61 101 0
-11 51 91 -21 61 101 0
11 -51 91 21 -61 101 0
-11 -51 91 -21 -61 101 0
11 51 -91 21 61 -101 0
12 52 92 27 67 107 0
-12 52 92 -27 67 107 0
12 -52 92 27 -67 107 0
-12 -52 92 -27 -67 107 0
12 52 -92 27 67 -107 0
12 52 92 23 63 103 0
-12 52 92 -23 63 103 0
12 -52 92 23 -63 103 0
-12 -52 92 -23 -63 103 0
12 52 -92 23 63 -103 0
12 52 92 33 73 113 0
-12 52 92 -33 73 113 0
12 -52 92 33 -73 113 0
-12 -52 92 -33 -73 113 0
12 52 -92 33 73 -113 0
12 52 92 34 74 114 0
-12 52 92 -34 74 114 0
12 -52 92 34 -74 114 0
-12 -52 92 -34 -74 114 0
12 52 -92 34 74 -114 0
12 52 92 36 76 116 0
-12 52 92 -36 76 116 0
12 -52 92 36 -76 116 0
-12 -52 92 -36 -76 116 0
12 52 -92 36 76 -116 0
12 52 92 16 56 96 0
-12 52 92 -16 56 96 0
12 -52 92 16 -56 96 0
-12 -52 92 -16 -56 96 0
12 52 -92 16 56 -96 0
12 52 92 25 65 105 0
-12 52 92 -25 65 105 0
12 -52 92 25 -65 105 0
-12 -52 92 -25 -65 105 0
12 52 -92 25 65 -105 0
12 52 92 14 54 94 0
-12 52 92 -14 54 94 0
12 -52 92 14 -54 94 0
-12 -52 92 -14 -54 94 0
12 52 -92 14 54 -94 0
12 52 92 38 78 118 0
-12 52 92 -38 78 118 0
12 -52 92 38 -78 118 0
-12 -52 92 -38 -78 118 0
12 52 -92 38 78 -118 0
12 52 92 25 65 105 0
-12 52 92 -25 65 105 0
12 -52 92 25 -65 105 0
-12 -52 92 -25 -65 105 0
12 52 -92 25 65 -105 0
13 53 93 21 61 101 0
-13 53 93 -21 61 101 0
13 -53 93 21 -61 101 0
-13 -53 93 -21 -61 101 0
13 53 -93 21 61 -101 0
13 53 93 15 55 95 0
-13 53 93 -15 55 95 0
13 -53 93 15 -55 95 0
-13 -53 93 -15 -55 95 0
13 53 -93 15 55 -95 0
13 53 93 28 68 108 0
-13 53 93 -28 68 108 0
13 -53 93 28 -68 108 0
-13 -53 93 -28 -68 108 0
13 53 -93 28 68 -108 0
13 53 93 33 73 113 0
-13 53 93 -33 73 113 0
13 -53 93 33 -73 113 0
-13 -53 93 -33 -73 113 0
13 53 -93 33 73 -113 0
13 53 93 16 56 96 0
-13 53 93 -16 56 96 0
13 -53 93 16 -56 96 0
-13 -53 93 -16 -56 96 0
13 53 -93 16 56 -96 0
13 53 93 31 71 111 0
-13 53 93 -31 71 111 0
13 -53 93 31 -71 111 0
-13 -53 93 -31 -71 111 0
13 53 -93 31 71 -111 0
13 53 93 37 77 117 0
-13 53 93 -37 77 117 0
13 -53 93 37 -77 117 0
-13 -53 93 -37 -77 117 0
13 53 -93 37 77 -117 0
14 54 94 20 60 100 0
-14 54 94 -20 60 100 0
14 -54 94 20 -60 100 0
-14 -54 94 -20 -60 100 0
14 54 -94 20 60 -100 0
14 54 94 31 71 111 0
-14 54 94 -31 71 111 0
14 -54 94 31 -71 111 0
-14 -54 94 -31 -71 111 0
14 54 -94 31 71 -111 0
14 54 94 32 72 112 0
-14 54 94 -32 72 112 0
14 -54 94 32 -72 112 0
-14 -54 94 -32 -72 112 0
14 54 -94 32 72 -112 0
14 54 94 39 79 119 0
-14 54 94 -39 79 119 0
14 -54 94 39 -79 119 0
-14 -54 94 -39 -79 119 0
14 54 -94 39 79 -119 0
14 54 94 21 61 101 0
-14 54 94 -21 61 101 0
14 -54 94 21 -61 101 0
-14 -54 94 -21 -61 101 0
14 54 -94 21 61 -101 0
14 54 94 40 80 120 0
-14 54 94 -40 80 120 0
14 -54 94 40 -80 120 0
-14 -54 94 -40 -80 120 0
14 54 -94 40 80 -120 0
15 55 95 40 80 120 0
-15 55 95 -40 80 120 0
15 -55 95 40 -80 120 0
-15 -55 95 -40 -80 120 0
15 55 -95 40 80 -120 0
15 55 95 22 62 102 0
-15 55 95 -22 62 102 0
15 -55 95 22 -62 102 0
-15 -55 95 -22 -62 102 0
15 55 -95 22 62 -102 0
15 55 95 37 77 117 0
-15 55 95 -37 77 117 0
15 -55 95 37 -77 117 0
-15 -55 95 -37 -77 117 0
15 55 -95 37 77 -117 0
15 55 95 18 58 98 0
-15 55 95 -18 58 98 0
15 -55 95 18 -58 98 0
-15 -55 95 -18 -58 98 0
15 55 -95 18 58 -98 0
15 55 95 27 67 107 0
-15 55 95 -27 67 107 0
15 -55 95 27 -67 107 0
-15 -55 95 -27 -67 107 0
15 55 -95 27 67 -107 0
15 55 95 31 71 111 0
-15 55 95 -31 71 111 0
15 -55 95 31 -71 111 0
-15 -55 95 -31 -71 111 0
15 55 -95 31 71 -111 0
15 55 95 28 68 108 0
-15 55 95 -28 68 108 0
15 -55 95 28 -68 108 0
-15 -55 95 -28 -68 108 0
15 55 -95 28 68 -108 0
16 56 96 23 63 103 0
-16 56 96 -23 63 103 0
16 -56 96 23 -63 103 0
-16 -56 96 -23 -63 103 0
16 56 -96 23 63 -103 0
16 56 96 20 60 100 0
-16 56 96 -20 60 100 0
16 -56 96 20 -60 100 0
-16 -56 96 -20 -60 100 0
16 56 -96 20 60 -100 0
16 56 96 35 75 115 0
-16 56 96 -35 75 115 0
16 -56 96 35 -75 115 0
-16 -56 96 -35 -75 115 0
16 56 -96 35 75 -115 0
16 56 96 36 76 116 0
-16 56 96 -36 76 116 0
16 -56 96 36 -76 116 0
-16 -56 96 -36 -76 116 0
16 56 -96 36 76 -116 0
16 56 96 32 72 112 0
-16 56 96 -32 72 112 0
16 -56 96 32 -72 112 0
-16 -56 96 -32 -72 112 0
16 56 -96 32 72 -112 0
17 57 97 26 66 106 0
-17 57 97 -26 66 106 0
17 -57 97 26 -66 106 0
-17 -57 97 -26 -66 106 0
17 57 -97 26 66 -106 0
17 57 97 31 71 111 0
-17 57 97 -31 71 111 0
17 -57 97 31 -71 111 0
-17 -57 97 -31 -71 111 0
17 57 -97 31 71 -111 0
17 57 97 18 58 98 0
-17 57 97 -18 58 98 0
17 -57 97 18 -58 98 0
-17 -57 97 -18 -58 98 0
17 57 -97 18 58 -98 0
17 57 97 28 68 108 0
-17 57 97 -28 68 108 0
17 -57 97 28 -68 108 0
-17 -57 97 -28 -68 108 0
17 57 -97 28 68 -108 0
17 57 97 23 63 103 0
-17 57 97 -23 63 103 0
17 -57 97 23 -63 103 0
-17 -57 97 -23 -63 103 0
17 57 -97 23 63 -103 0
17 57 97 29 69 109 0
-17 57 97 -29 69 109 0
17 -57 97 29 -69 109 0
-17 -57 97 -29 -69 109 0
17 57 -97 29 69 -109 0
17 57 97 30 70 110 0
-17 57 97 -30 70 110 0
17 -57 97 30 -70 110 0
-17 -57 97 -30 -70 110 0
17 57 -97 30 70 -110 0
17 57 97 36 76 116 0
-17 57 97 -36 76 116 0
17 -57 97 36 -76 116 0
-17 -57 97 -36 -76 116 0
17 57 -97 36 76 -116 0
18 58 98 33 73 113 0
-18 58 98 -33 73 113 0
18 -58 98 33 -73 113 0
-18 -58 98 -33 -73 113 0
18 58 -98 33 73 -113 0
18 58 98 24 64 104 0
-18 58 98 -24 64 104 0
18 -58 98 24 -64 104 0
-18 -58 98 -24 -64 104 0
18 58 -98 24 64 -104 0
18 58 98 26 66 106 0
-18 58 98 -26 66 106 0
18 -58 98 26 -66 106 0
-18 -58 98 -26 -66 106 0
18 58 -98 26 66 -106 0
18 58 98 39 79 119 0
-18 58 98 -39 79 119 0
18 -58 98 39 -79 119 0
-18 -58 98 -39 -79 119 0
18 58 -98 39 79 -119 0
18 58 98 40 80 120 0
-18 58 98 -40 80 120 0
18 -58 98 40 -80 120 0
-18 -58 98 -40 -80 120 0
18 58 -98 40 80 -120 0
19 59 99 26 66 106 0
-19 59 99 -26 66 106 0
19 -59 99 26 -66 106 0
-19 -59 99 -26 -66 106 0
19 59 -99 26 66 -106 0
19 59 99 38 78 118 0
-19 59 99 -38 78 118 0
19 -59 99 38 -78 118 0
-19 -59 99 -38 -78 118 0
19 59 -99 38 78 -118 0
19 59 99 26 66 106 0
-19 59 99 -26 66 106 0
19 -59 99 26 -66 106 0
-19 -59 99 -26 -66 106 0
19 59 -99 26 66 -106 0
19 59 99 40 80 120 0
-19 59 99 -40 80 120 0
19 -59 99 40 -80 120 0
-19 -59 99 -40 -80 120 0
19 59 -99 40 80 -120 0
19 59 99 38 78 118 0
-19 59 99 -38 78 118 0
19 -59 99 38 -78 118 0
-19 -59 99 -38 -78 118 0
19 59 -99 38 78 -118 0
19 59 99 25 65 105 0
-19 59 99 -25 65 105 0
19 -59 99 25 -65 105 0
-19 -59 99 -25 -65 105 0
19 59 -99 25 65 -105 0
19 59 99 26 66 106 0
-19 59 99 -26 66 106 0
19 -59 99 26 -66 106 0
-19 -59 99 -26 -66 106 0
19 59 -99 26 66 -106 0
19 59 99 25 65 105 0
-19 59 99 -25 65 105 0
19 -59 99 25 -65 105 0
-19 -59 99 -25 -65 105 0
19 59 -99 25 65 -105 0
20 60 100 33 73 113 0
-20 60 100 -33 73 113 0
20 -60 100 33 -73 113 0
-20 -60 100 -33 -73 113 0
20 60 -100 33 73 -113 0
20 60 100 26 66 106 0
-20 60 100 -26 66 106 0
20 -60 100 26 -66 106 0
-20 -60 100 -26 -66 106 0
20 60 -100 26 66 -106 0
20 60 100 24 64 104 0
-20 60 100 -24 64 104 0
20 -60 100 24 -64 104 0
-20 -60 100 -24 -64 104 0
20 60 -100 24 64 -104 0
21 61 101 28 68 108 0
-21 61 101 -28 68 108 0
21 -61 101 28 -68 108 0
-21 -61 101 -28 -68 108 0
21 61 -101 28 68 -108 0
21 61 101 32 72 112 0
-21 61 101 -32 72 112 0
21 -61 101 32 -72 112 0
-21 -61 101 -32 -72 112 0
21 61 -101 32 72 -112 0
21 61 101 38 78 118 0
-21 61 101 -38 78 118 0
21 -61 101 38 -78 118 0
-21 -61 101 -38 -78 118 0
21 61 -101 38 78 -118 0
22 62 102 27 67 107 0
-22 62 102 -27 67 107 0
22 -62 102 27 -67 107 0
-22 -62 102 -27 -67 107 0
22 62 -102 27 67 -107 0
22 62 102 37 77 117 0
-22 62 102 -37 77 117 0
22 -62 102 37 -77 117 0
-22 -62 102 -37 -77 117 0
22 62 -102 37 77 -117 0
22 62 102 32 72 112 0
-22 62 102 -32 72 112 0
22 -62 102 32 -72 112 0
-22 -62 102 -32 -72 112 0
22 62 -102 32 72 -112 0
22 62 102 32 72 112 0
-22 62 102 -32 72 112 0
22 -62 102 32 -72 112 0
-22 -62 102 -32 -72 112 0
22 62 -102 32 72 -112 0
22 62 102 34 74 114 0
-22 62 102 -34 74 114 0
22 -62 102 34 -74 114 0
-22 -62 102 -34 -74 114 0
22 62 -102 34 74 -114 0
22 62 102 27 67 107 0
-22 62 102 -27 67 107 0
22 -62 102 27 -67 107 0
-22 -62 102 -27 -67 107 0
22 62 -102 27 67 -107 0
22 62 102 35 75 115 0
-22 62 102 -35 75 115 0
22 -62 102 35 -75 115 0
-22 -62 102 -35 -75 115 0
22 62 -102 35 75 -115 0
22 62 102 37 77 117 0
-22 62 102 -37 77 117 0
22 -62 102 37 -77 117 0
-22 -62 102 -37 -77 117 0
22 62 -102 37 77 -117 0
23 63 103 29 69 109 0
-23 63 103 -29 69 109 0
23 -63 103 29 -69 109 0
-23 -63 103 -29 -69 109 0
23 63 -103 29 69 -109 0
23 63 103 35 75 115 0
-23 63 103 -35 75 115 0
23 -63 103 35 -75 115 0
-23 -63 103 -35 -75 115 0
23 63 -103 35 75 -115 0
23 63 103 35 75 115 0
-23 63 103 -35 75 115 0
23 -63 103 35 -75 115 0
-23 -63 103 -35 -75 115 0
23 63 -103 35 75 -115 0
23 63 103 38 78 118 0
-23 63 103 -38 78 118 0
23 -63 103 38 -78 118 0
-23 -63 103 -38 -78 118 0
23 63 -103 38 78 -118 0
24 64 104 32 72 112 0
-24 64 104 -32 72 112 0
24 -64 104 32 -72 112 0
-24 -64 104 -32 -72 112 0
24 64 -104 32 72 -112 0
24 64 104 34 74 114 0
-24 64 104 -34 74 114 0
24 -64 104 34 -74 114 0
-24 -64 104 -34 -74 114 0
24 64 -104 34 74 -114 0
24 64 104 34 74 114 0
-24 64 104 -34 74 114 0
24 -64 104 34 -74 114 0
-24 -64 104 -34 -74 114 0
24 64 -104 34 74 -114 0
24 64 104 37 77 117 0
-24 64 104 -37 77 117 0
24 -64 104 37 -77 117 0
-24 -64 104 -37 -77 117 0
24 64 -104 37 77 -117 0
25 65 105 28 68 108 0
-25 65 105 -28 68 108 0
25 -65 105 28 -68 108 0
-25 -65 105 -28 -68 108 0
25 65 -105 28 68 -108 0
25 65 105 30 70 110 0
-25 65 105 -30 70 110 0
25 -65 105 30 -70 110 0
-25 -65 105 -30 -70 110 0
25 65 -105 30 70 -110 0
25 65 105 30 70 110 0
-25 65 105 -30 70 110 0
25 -65 105 30 -70 110 0
-25 -65 105 -30 -70 110 0
25 65 -105 30 70 -110 0
26 66 106 37 77 117 0
-26 66 106 -37 77 117 0
26 -66 106 37 -77 117 0
-26 -66 106 -37 -77 117 0
26 66 -106 37 77 -117 0
26 66 106 28 68 108 0
-26 66 106 -28 68 108 0
26 -66 106 28 -68 108 0
-26 -66 106 -28 -68 108 0
26 66 -106 28 68 -108 0
26 66 106 27 67 107 0
-26 66 106 -27 67 107 0
26 -66 106 27 -67 107 0
-26 -66 106 -27 -67 107 0
26 66 -106 27 67 -107 0
27 67 107 30 70 110 0
-27 67 107 -30 70 110 0
27 -67 107 30 -70 110 0
-27 -67 107 -30 -70 110 0
27 67 -107 30 70 -110 0
27 67 107 30 70 110 0
-27 67 107 -30 70 110 0
27 -67 107 30 -70 110 0
-27 -67 107 -30 -70 110 0
27 67 -107 30 70 -110 0
28 68 108 31 71 111 0
-28 68 108 -31 71 111 0
28 -68 108 31 -71 111 0
-28 -68 108 -31 -71 111 0
28 68 -108 31 71 -111 0
29 69 109 31 71 111 0
-29 69 109 -31 71 111 0
29 -69 109 31 -71 111 0
-29 -69 109 -31 -71 111 0
29 69 -109 31 71 -111 0
29 69 109 38 78 118 0
-29 69 109 -38 78 118 0
29 -69 109 38 -78 118 0
-29 -69 109 -38 -78 118 0
29 69 -109 38 78 -118 0
30 70 110 36 76 116 0
-30 70 110 -36 76 116 0
30 -70 110 36 -76 116 0
-30 -70 110 -36 -76 116 0
30 70 -110 36 76 -116 0
31 71 111 39 79 119 0
-31 71 111 -39 79 119 0
31 -71 111 39 -79 119 0
-31 -71 111 -39 -79 119 0
31 71 -111 39 79 -119 0
31 71 111 37 77 117 0
-31 71 111 -37 77 117 0
31 -71 111 37 -77 117 0
-31 -71 111 -37 -77 117 0
31 71 -111 37 77 -117 0
32 72 112 40 80 120 0
-32 72 112 -40 80 120 0
32 -72 112 40 -80 120 0
-32 -72 112 -40 -80 120 0
32 72 -112 40 80 -120 0
32 72 112 36 76 116 0
-32 72 112 -36 76 116 0
32 -72 112 36 -76 116 0
-32 -72 112 -36 -76 116 0
32 72 -112 36 76 -116 0
33 73 113 38 78 118 0
-33 73 113 -38 78 118 0
33 -73 113 38 -78 118 0
-33 -73 113 -38 -78 118 0
33 73 -113 38 78 -118 0
33 73 113 39 79 119 0
-33 73 113 -39 79 119 0
33 -73 113 39 -79 119 0
-33 -73 113 -39 -79 119 0
33 73 -113 39 79 -119 0
33 73 113 39 79 119 0
-33 73 113 -39 79 119 0
33 -73 113 39 -79 119 0
-33 -73 113 -39 -79 119 0
33 73 -113 39 79 -119 0
33 73 113 39 79 119 0
-33 73 113 -39 79 119 0
33 -73 113 39 -79 119 0
-33 -73 113 -39 -79 119 0
33 73 -113 39 79 -119 0
34 74 114 40 80 120 0
-34 74 114 -40 80 120 0
34 -74 114 40 -80 120 0
-34 -74 114 -40 -80 120 0
34 74 -114 40 80 -120 0
34 74 114 39 79 119 0
-34 74 114 -39 79 119 0
34 -74 114 39 -79 119 0
-34 -74 114 -39 -79 119 0
34 74 -114 39 79 -119 0
34 74 114 35 75 115 0
-34 74 114 -35 75 115 0
34 -74 114 35 -75 115 0
-34 -74 114 -35 -75 115 0
34 74 -114 35 75 -115 0
36 76 116 39 79 119 0
-36 76 116 -39 79 119 0
36 -76 116 39 -79 119 0
-36 -76 116 -39 -79 119 0
36 76 -116 39 79 -119 0
